173725.48,50.21,62.26
193368.56,45.11,55.94
173570.42,50.25,62.32
169498.11,51.46,63.82
183771.89,47.46,58.86
185752.1,46.96,58.23
166628.22,52.35,64.92
185676.53,46.98,58.26
181777.35,47.99,59.51
202455.34,43.09,53.43
169314.14,51.52,63.89
165975.05,52.55,65.17
170753.5,51.08,63.35
172950.0,50.43,62.54
182654.2,47.76,59.22
150696.28,57.88,71.78
168145.19,51.88,64.33
164258.41,53.1,65.85
179443.57,48.61,60.28
152237.46,57.3,71.05
